
   AbsCon 1.41 (January, 2014) - defaultConfiguration

   
   instance
        framework=CSP  name=Isomorphism-/cluster/gpg/ciaran/sip-benchmarks/benchmarks/LV/g7-/cluster/gpg/ciaran/sip-benchmarks/benchmarks/LV/g33
        parameters=/cluster/gpg/ciaran/sip-benchmarks/benchmarks/LV/g7,/cluster/gpg/ciaran/sip-benchmarks/benchmarks/LV/g33

   loading variables...
        nbVariables=20  nbDomainTypes=1  nbTotalValues=2020  domainSizes=(101:20)
          =>  wckTime=0.177  cpuTime=0.298  mem=8M878

   loading objectives...

   loading constraints...
        nbConstraints=101  nbSpecificConstraints=1  nbExtensionStructures=(1,shared:99)  nbConflictsStructures=(1,shared:99,unbuilt:1)
        degrees=(11:20)  arities=(2:100)(20:1)  types=(AllDifferent:1)(ConstraintHardExtensionV-Bits:100)
          =>  wckTime=0.228  cpuTime=0.345  mem=4M250

   INFO : <!-- Start saving the XML representation -->

   INFO : <!-- Stop saving the XML representation of g33.xml -->

   Solver SolverBacktrack being built... 
          =>  wckTime=0.405  cpuTime=0.491  mem=17M830

   
   search
        run=0  nbConstraintChecks=0  depth=(min:0,max:0,avg:1)  nbEffectivePropagations=431  nbRevisions=5390  nbUselessRevisions=4968
        nbAssignments=101  nbFailedAssignments=101  nbBacktracks=1  nbVisitedNodes=202  nbRestartNogoods=0
          =>  wckTime=0.198  cpuTime=0.67  mem=17M915

   
   global
        nbConstraintChecks=0  nbEffectivePropagations=431  nbRevisions=5390  nbUselessRevisions=4968  nbRestartNogoods=0  solvingWckTime=0.199
        expiredTime=no  totalExploration=yes  nbFoundSolutions=0  Stop=FULL_EXPLORATION
          =>  wckTime=0.605  cpuTime=0.67  mem=17M915

s UNSATISFIABLE
d NODES 101

   totalWckTime=0.511  totalCpuTime=0.671
